% demand
num_movements = 37;
loading_factor = [1950, 1650, 900, 1000, 1800, 1350, 950, 1050, 900, 1400, 1850, 1150, 1150, 2000, 1550, 800, 1150, 1650, 1700, 1150, 1600, 900, 1450, 1450, 1750, 1800, 1400, 1050, 1000, 1400, 1150, 950, 1300, 1050, 2000, 1950, 850];
pickup_time = [0, 0, 0, 1, 1, 1, 1, 1, 1, 1, 2, 2, 2, 2, 2, 2, 2, 3, 3, 4, 5, 5, 6, 8, 8, 8, 9, 9, 9, 9, 9, 12, 12, 12, 12, 12, 12];
delivery_time = [1, 2, 2, 2, 2, 2, 2, 2, 2, 2, 8, 3, 7, 3, 7, 7, 5, 5, 8, 5, 8, 8, 8, 11, 11, 12, 12, 11, 11, 11, 11, 13, 13, 13, 13, 13, 13];

% transporter definition
total_capacity = 11000;
num_decks = 4;
capacity = [3000, 3000, 1000, 4000];

% ways out of decks
num_ways_out = 2;
paths_out = array3d(decks, ways_out, decks, [
% ways out of deck d1
2, 4, 0, 0, 3, 4, 0, 0, 

% ways out of deck d2
4, 0, 0, 0, 0, 0, 0, 0,	

% ways out of deck d3
4, 0, 0, 0, 0, 0, 0, 0,	

% ways out of deck d4
0, 0, 0, 0,	0, 0, 0, 0,	

]);

